Problem:    
Rows:       105
Columns:    45 (34 integer, 34 binary)
Non-zeros:  302
Status:     INTEGER OPTIMAL
Objective:  value = 28.962207 (MINimum)

   No.   Row name        Activity     Lower bound   Upper bound
------ ------------    ------------- ------------- -------------
     1 r.5                   2028.96             0               
     2 r.6                  -1978.68      -1986.23               
     3 r.7                   28.9622             0               
     4 r.8                    10.686      -1979.81               
     5 r.9                   28.9622             0               
     6 r.10                  7.55521      -1995.72               
     7 r.11                  2028.96             0               
     8 r.12                 -1982.41       -1993.1               
     9 r.13                  28.9622             0               
    10 r.14                  3.27651      -1993.62               
    11 r.15                  2028.96             0               
    12 r.16                 -1971.04      -1988.63               
    13 r.17                  2028.96             0               
    14 r.18                 -1971.04      -1992.36               
    15 r.19                  28.9622             0               
    16 r.20                 -1959.18      -1988.14               
    17 r.21                  2028.96             0               
    18 r.22                 -1998.99      -1998.99               
    19 r.23                  28.9622             0               
    20 r.24                   1.0148      -1997.36               
    21 r.25                        1             1             = 
    22 r.26                        1             1             = 
    23 r.27                        1             1             = 
    24 r.28                        1             1             = 
    25 r.29                        1             1             = 
    26 r.30                  1986.23        4.2787               
    27 r.31                 -1986.23      -1986.23               
    28 r.32                   6.9037        6.9037               
    29 r.33                  -6.9037      -1979.81               
    30 r.34                  1981.95        6.3814               
    31 r.35                 -1981.95      -1986.23               
    32 r.36                  18.2762       11.3725               
    33 r.37                 -18.2762      -1979.81               
    34 r.38                   7.6379        7.6379               
    35 r.39                  -7.6379      -1986.23               
    36 r.40                   30.132       11.8558               
    37 r.41                  -30.132      -1979.81               
    38 r.42                 -1979.69      -1981.65               
    39 r.43                  9.67124      -1970.14               
    40 r.44                 -1979.69      -1981.65               
    41 r.45                  9.67124      -1970.14               
    42 r.46                  13.7691       13.7691               
    43 r.47                 -13.7691      -1995.72               
    44 r.48                   1993.1       20.1922               
    45 r.49                  -1993.1       -1993.1               
    46 r.50                  1995.72        6.3814               
    47 r.51                 -1995.72      -1995.72               
    48 r.52                  11.3725       11.3725               
    49 r.53                 -11.3725       -1993.1               
    50 r.54                   21.407        7.6379               
    51 r.55                  -21.407      -1995.72               
    52 r.56                  23.2283       11.8558               
    53 r.57                 -23.2283       -1993.1               
    54 r.58                  6.54041      -1991.14               
    55 r.59                 -1983.43      -1983.43               
    56 r.60                  6.54041      -1991.14               
    57 r.61                 -1983.43      -1983.43               
    58 r.62                  18.0478       13.7691               
    59 r.63                 -18.0478      -1993.62               
    60 r.64                  1981.72       20.1922               
    61 r.65                 -1981.72      -1988.63               
    62 r.66                   4.2787        4.2787               
    63 r.67                  -4.2787      -1993.62               
    64 r.68                  1988.63        6.9037               
    65 r.69                 -1988.63      -1988.63               
    66 r.70                  25.6857        7.6379               
    67 r.71                 -25.6857      -1993.62               
    68 r.72                  11.8558       11.8558               
    69 r.73                 -11.8558      -1988.63               
    70 r.74                  2.26171      -1989.04               
    71 r.75                 -1972.05      -1978.96               
    72 r.76                  2.26171      -1989.04               
    73 r.77                 -1972.05      -1978.96               
    74 r.78                  1992.36       13.7691               
    75 r.79                 -1992.36      -1992.36               
    76 r.80                  1969.87       20.1922               
    77 r.81                 -1969.87      -1988.14               
    78 r.82                  1978.59        4.2787               
    79 r.83                 -1978.59      -1992.36               
    80 r.84                  1976.77        6.9037               
    81 r.85                 -1976.77      -1988.14               
    82 r.86                  1974.31        6.3814               
    83 r.87                 -1974.31      -1992.36               
    84 r.88                  1988.14       11.3725               
    85 r.89                 -1988.14      -1988.14               
    86 r.90                 -1972.05      -1987.78               
    87 r.91                  -1960.2      -1978.47               
    88 r.92                 -1972.05      -1987.78               
    89 r.93                  -1960.2      -1978.47               
    90 r.94                 -1979.69      -1981.65               
    91 r.95                  9.67124      -1970.14               
    92 r.96                 -1979.69      -1981.65               
    93 r.97                  9.67124      -1970.14               
    94 r.98                  6.54041      -1991.14               
    95 r.99                 -1983.43      -1983.43               
    96 r.100                 6.54041      -1991.14               
    97 r.101                -1983.43      -1983.43               
    98 r.102                 2.26171      -1989.04               
    99 r.103                -1972.05      -1978.96               
   100 r.104                 2.26171      -1989.04               
   101 r.105                -1972.05      -1978.96               
   102 r.106                -1972.05      -1987.78               
   103 r.107                 -1960.2      -1978.47               
   104 r.108                -1972.05      -1987.78               
   105 r.109                 -1960.2      -1978.47               

   No. Column name       Activity     Lower bound   Upper bound
------ ------------    ------------- ------------- -------------
     1 tt                    28.9622             0               
     2 s_1_1        *              1             0             1 
     3 t_1_1                  7.6379             0               
     4 s_2_1        *              0             0             1 
     5 t_2_1                 18.2762             0               
     6 s_1_2        *              0             0             1 
     7 t_1_2                  21.407             0               
     8 s_2_2        *              1             0             1 
     9 t_2_2                 11.3725             0               
    10 s_1_3        *              0             0             1 
    11 t_1_3                 25.6857             0               
    12 s_2_3        *              1             0             1 
    13 t_2_3                       0             0               
    14 s_1_4        *              1             0             1 
    15 t_1_4                       0             0               
    16 s_2_4        *              0             0             1 
    17 t_2_4                 1988.14             0               
    18 s_1_5        *              1             0             1 
    19 t_1_5                 27.9474             0               
    20 s_2_5        *              0             0             1 
    21 t_2_5                 27.9474             0               
    22 u_1_1_2      *              1             0             1 
    23 u_2_1_2      *              0             0             1 
    24 u_1_1_3      *              1             0             1 
    25 u_2_1_3      *              0             0             1 
    26 u_1_1_4      *              0             0             1 
    27 u_2_1_4      *              1             0             1 
    28 u_1_2_1      *              0             0             1 
    29 u_2_2_1      *              1             0             1 
    30 u_1_2_3      *              1             0             1 
    31 u_2_2_3      *              0             0             1 
    32 u_1_2_4      *              0             0             1 
    33 u_2_2_4      *              1             0             1 
    34 u_1_3_1      *              0             0             1 
    35 u_2_3_1      *              1             0             1 
    36 u_1_3_2      *              0             0             1 
    37 u_2_3_2      *              1             0             1 
    38 u_1_3_4      *              0             0             1 
    39 u_2_3_4      *              1             0             1 
    40 u_1_4_1      *              1             0             1 
    41 u_2_4_1      *              0             0             1 
    42 u_1_4_2      *              1             0             1 
    43 u_2_4_2      *              0             0             1 
    44 u_1_4_3      *              1             0             1 
    45 u_2_4_3      *              0             0             1 

Integer feasibility conditions:

KKT.PE: max.abs.err = 0.00e+00 on row 0
        max.rel.err = 0.00e+00 on row 0
        High quality

KKT.PB: max.abs.err = 7.64e-14 on column 15
        max.rel.err = 7.64e-14 on column 15
        High quality

End of output
